NAME: renA6
TYPE: TSP
COMMENT: 6-city problem A
DIMENSION: 6
EDGE_WEIGHT_TYPE : EUC_2D
NODE_COORD_SECTION
1  300 0
2  600 0
3  900 0
4  1200 300
5  1200 600
6  900 900
7  600 900
8  300 900
9  0 600
10 0 300
EOF
